DATASET = "thpack5";
INSTANCE = "084";

WIDTH = 233;
HEIGHT = 220;
LENGTH = 587;

NO_OF_SHAPES = 12;
size = [|
  114,77,42 |
  105,81,74 |
  76,73,50 |
  104,91,41 |
  75,70,23 |
  93,67,20 |
  89,54,25 |
  89,46,28 |
  36,35,24 |
  72,50,29 |
  72,41,38 |
  84,32,24 |
|];

verticality = [|
  0,1,1 |
  1,1,1 |
  1,1,1 |
  0,0,1 |
  0,0,1 |
  0,0,1 |
  0,0,1 |
  0,1,1 |
  1,1,1 |
  0,1,1 |
  1,1,1 |
  0,1,1 |
|];

box_count = [
  8,
  14,
  14,
  13,
  14,
  11,
  15,
  9,
  8,
  10,
  12,
  10,
];
